db/data/53492467913992277301510124153166155139.z3.out
-------------------
2500.114500039
